p edge 500 126
e 319 380 1.000000
e 131 319 1.000000
e 131 380 1.000000
e 184 408 1.000000
e 184 354 1.000000
e 354 408 1.000000
e 431 483 1.000000
e 379 483 1.000000
e 379 431 1.000000
e 334 473 1.000000
e 272 334 1.000000
e 272 473 1.000000
e 15 431 1.000000
e 15 239 1.000000
e 239 431 1.000000
e 398 483 1.000000
e 128 398 1.000000
e 128 483 1.000000
e 333 462 1.000000
e 27 333 1.000000
e 27 462 1.000000
e 81 191 1.000000
e 58 81 1.000000
e 58 191 1.000000
e 241 445 1.000000
e 127 241 1.000000
e 127 445 1.000000
e 195 279 1.000000
e 53 195 1.000000
e 53 279 1.000000
e 128 294 1.000000
e 7 294 1.000000
e 7 128 1.000000
e 111 375 1.000000
e 111 209 1.000000
e 209 375 1.000000
e 144 470 1.000000
e 94 144 1.000000
e 94 470 1.000000
e 393 445 1.000000
e 200 445 1.000000
e 200 393 1.000000
e 82 391 1.000000
e 82 409 1.000000
e 391 409 1.000000
e 37 72 1.000000
e 37 317 1.000000
e 72 317 1.000000
e 228 317 1.000000
e 65 317 1.000000
e 65 228 1.000000
e 68 498 1.000000
e 1 68 1.000000
e 1 498 1.000000
e 3 447 1.000000
e 3 108 1.000000
e 108 447 1.000000
e 397 492 1.000000
e 111 397 1.000000
e 111 492 1.000000
e 85 447 1.000000
e 85 86 1.000000
e 86 447 1.000000
e 149 161 1.000000
e 149 493 1.000000
e 161 493 1.000000
e 102 277 1.000000
e 102 449 1.000000
e 277 449 1.000000
e 321 348 1.000000
e 105 348 1.000000
e 105 321 1.000000
e 94 482 1.000000
e 94 496 1.000000
e 482 496 1.000000
e 354 495 1.000000
e 101 354 1.000000
e 101 495 1.000000
e 458 495 1.000000
e 197 495 1.000000
e 197 458 1.000000
e 153 185 1.000000
e 12 153 1.000000
e 12 185 1.000000
e 213 480 1.000000
e 85 213 1.000000
e 85 480 1.000000
e 75 136 1.000000
e 34 75 1.000000
e 34 136 1.000000
e 170 419 1.000000
e 155 170 1.000000
e 155 419 1.000000
e 301 309 1.000000
e 2 309 1.000000
e 2 301 1.000000
e 306 348 1.000000
e 306 363 1.000000
e 348 363 1.000000
e 34 174 1.000000
e 34 159 1.000000
e 159 174 1.000000
e 182 420 1.000000
e 157 182 1.000000
e 157 420 1.000000
e 247 357 1.000000
e 162 247 1.000000
e 162 357 1.000000
e 95 247 1.000000
e 95 242 1.000000
e 242 247 1.000000
e 91 361 1.000000
e 30 361 1.000000
e 30 91 1.000000
e 132 500 1.000000
e 132 481 1.000000
e 481 500 1.000000
e 12 487 1.000000
e 12 384 1.000000
e 384 487 1.000000
e 184 433 1.000000
e 184 207 1.000000
e 207 433 1.000000
e 10 282 1.000000
e 10 404 1.000000
e 282 404 1.000000
